decision_x1=[0,7];
decision_x2=[0,7];
decision_x3=[0,7];
decision_x4=[0,7];
decision_x5=[0,7];
decision_x6=[0,7];
decision_x7=[0,7];
decision_x8=[0,7];
decision_x9=[0,7];
decision_x10=[0,7];
decision_x11=[0,7];
decision_x12=[0,7];
decision_x13=[0,7];
decision_x14=[0,7];
random_y1=[0,7];
random_y2=[0,7];
random_y3=[0,7];
random_y4=[0,7];
random_y5=[0,7];
random_y6=[0,7];
constraint_x2_x1=[
0,0,0.0074|
0,1,3.4|
0,2,7.4|
0,3,4|
0,4,2.5|
0,5,7.6|
0,6,2.3|
0,7,9|
1,0,3.4|
1,1,8|
1,2,4.7|
1,3,2.8|
1,4,0.43|
1,5,0.98|
1,6,7.6|
1,7,7.8|
2,0,6|
2,1,5.9|
2,2,1.3|
2,3,1.4|
2,4,5.3|
2,5,3.5|
2,6,6.8|
2,7,7.5|
3,0,9.4|
3,1,0.54|
3,2,3.8|
3,3,2.3|
3,4,7.7|
3,5,1.7|
3,6,5.2|
3,7,1.7|
4,0,9.4|
4,1,5.9|
4,2,9.1|
4,3,2.9|
4,4,4|
4,5,4.1|
4,6,9.2|
4,7,0.21|
5,0,0.53|
5,1,9.3|
5,2,0.67|
5,3,7.5|
5,4,8.7|
5,5,1.5|
5,6,9|
5,7,1.2|
6,0,7|
6,1,2.1|
6,2,2.5|
6,3,0.00071|
6,4,6.1|
6,5,3.4|
6,6,4|
6,7,2.6|
7,0,3.4|
7,1,8|
7,2,5.5|
7,3,0.17|
7,4,9.5|
7,5,1.1|
7,6,5|
7,7,9.3|
];
constraint_x3_x2=[
0,0,0.58|
0,1,9.1|
0,2,2.3|
0,3,8.8|
0,4,9.6|
0,5,4.6|
0,6,4.8|
0,7,0.18|
1,0,7.5|
1,1,6.4|
1,2,9.9|
1,3,9.6|
1,4,9.4|
1,5,8.3|
1,6,5.3|
1,7,4.6|
2,0,3.8|
2,1,0.16|
2,2,6|
2,3,3.7|
2,4,7.7|
2,5,1.2|
2,6,7.6|
2,7,7|
3,0,7.1|
3,1,8.5|
3,2,5.7|
3,3,6.2|
3,4,5|
3,5,8.8|
3,6,9.7|
3,7,7.2|
4,0,4.7|
4,1,5|
4,2,5.2|
4,3,7.9|
4,4,8.7|
4,5,5.1|
4,6,1.6|
4,7,9.1|
5,0,7.5|
5,1,9.1|
5,2,7|
5,3,3.1|
5,4,7.4|
5,5,1.2|
5,6,1.7|
5,7,4.5|
6,0,7.5|
6,1,4.5|
6,2,2.3|
6,3,3|
6,4,5|
6,5,6.8|
6,6,3.2|
6,7,3.9|
7,0,7.9|
7,1,4.2|
7,2,5|
7,3,4.2|
7,4,1.4|
7,5,9.5|
7,6,2.5|
7,7,6.1|
];
constraint_x4_x3=[
0,0,5|
0,1,3.8|
0,2,5.7|
0,3,3.7|
0,4,3.3|
0,5,2.8|
0,6,8.4|
0,7,9.6|
1,0,2.1|
1,1,6.7|
1,2,4.6|
1,3,8.7|
1,4,1.9|
1,5,1.7|
1,6,8.4|
1,7,7.2|
2,0,6|
2,1,1.2|
2,2,9.9|
2,3,9.9|
2,4,8.7|
2,5,0.67|
2,6,8.1|
2,7,5.4|
3,0,0.78|
3,1,0.59|
3,2,9.7|
3,3,5|
3,4,0.31|
3,5,4.3|
3,6,3.7|
3,7,4.2|
4,0,7.2|
4,1,2.6|
4,2,4.5|
4,3,7.9|
4,4,3.6|
4,5,3.4|
4,6,0.18|
4,7,3|
5,0,9.8|
5,1,8.7|
5,2,6.3|
5,3,9.2|
5,4,6.6|
5,5,10|
5,6,0.079|
5,7,5.2|
6,0,0.19|
6,1,8.8|
6,2,0.25|
6,3,8.1|
6,4,8.7|
6,5,3.6|
6,6,5.9|
6,7,9.5|
7,0,6|
7,1,3.3|
7,2,6.8|
7,3,8.4|
7,4,1.8|
7,5,1.8|
7,6,2.5|
7,7,7.5|
];
constraint_x5_x1=[
0,0,7.7|
0,1,1.5|
0,2,1.7|
0,3,3.5|
0,4,9.4|
0,5,9.4|
0,6,0.14|
0,7,8.7|
1,0,1.3|
1,1,1.4|
1,2,3.1|
1,3,2.5|
1,4,9.5|
1,5,8.1|
1,6,4.4|
1,7,9.2|
2,0,5.3|
2,1,9|
2,2,2|
2,3,6.1|
2,4,7.1|
2,5,8.2|
2,6,4.5|
2,7,0.67|
3,0,7.8|
3,1,2.8|
3,2,1|
3,3,2.1|
3,4,5.8|
3,5,4.4|
3,6,4.3|
3,7,2.4|
4,0,6.3|
4,1,9.1|
4,2,0.12|
4,3,8|
4,4,8.4|
4,5,0.98|
4,6,3.5|
4,7,6.2|
5,0,7.7|
5,1,5|
5,2,1|
5,3,6.8|
5,4,0.53|
5,5,1.6|
5,6,2.3|
5,7,5.4|
6,0,6.6|
6,1,9.4|
6,2,4.9|
6,3,0.16|
6,4,6.2|
6,5,1.1|
6,6,7.8|
6,7,9.2|
7,0,2.6|
7,1,2.9|
7,2,6.5|
7,3,5.4|
7,4,8.6|
7,5,2.5|
7,6,8|
7,7,4.9|
];
constraint_x6_x2=[
0,0,4.5|
0,1,5.9|
0,2,2.3|
0,3,4.6|
0,4,9.1|
0,5,7.5|
0,6,4.9|
0,7,4.7|
1,0,4.9|
1,1,0.71|
1,2,9.3|
1,3,6.3|
1,4,8.9|
1,5,1.8|
1,6,0.54|
1,7,7.9|
2,0,9.8|
2,1,7.9|
2,2,6|
2,3,5.8|
2,4,6.9|
2,5,1.2|
2,6,3.6|
2,7,9.3|
3,0,7.8|
3,1,7.9|
3,2,3.5|
3,3,3.4|
3,4,6.4|
3,5,6|
3,6,6|
3,7,1.9|
4,0,9.3|
4,1,9.8|
4,2,5.1|
4,3,9.7|
4,4,9.7|
4,5,9.5|
4,6,7|
4,7,4.9|
5,0,7.4|
5,1,5.5|
5,2,3.4|
5,3,6.3|
5,4,3.4|
5,5,2.2|
5,6,8.9|
5,7,9.6|
6,0,4.6|
6,1,8.8|
6,2,1.8|
6,3,9.6|
6,4,9.8|
6,5,2.6|
6,6,7.2|
6,7,6.1|
7,0,8.4|
7,1,0.017|
7,2,3.4|
7,3,8.6|
7,4,4.4|
7,5,8.3|
7,6,6.5|
7,7,3.2|
];
constraint_x6_x5=[
0,0,0.57|
0,1,7.1|
0,2,5.2|
0,3,5|
0,4,9.1|
0,5,2.6|
0,6,1.1|
0,7,9|
1,0,7|
1,1,9.3|
1,2,4.4|
1,3,7.3|
1,4,8.5|
1,5,7.4|
1,6,4.9|
1,7,2.4|
2,0,2.3|
2,1,9.7|
2,2,4.1|
2,3,0.33|
2,4,8.4|
2,5,3.5|
2,6,6.8|
2,7,6.4|
3,0,0.35|
3,1,6.6|
3,2,5.2|
3,3,2|
3,4,9.8|
3,5,5.5|
3,6,0.47|
3,7,9.8|
4,0,8.6|
4,1,0.98|
4,2,6.4|
4,3,1|
4,4,1.4|
4,5,1.7|
4,6,9.6|
4,7,8.9|
5,0,7.5|
5,1,4.9|
5,2,5.6|
5,3,4.5|
5,4,8.2|
5,5,3.2|
5,6,0.51|
5,7,7.5|
6,0,9.1|
6,1,3.1|
6,2,1.4|
6,3,1|
6,4,7.1|
6,5,5.9|
6,6,4.4|
6,7,2.1|
7,0,9.1|
7,1,1.3|
7,2,4.3|
7,3,10|
7,4,5.8|
7,5,8.3|
7,6,0.083|
7,7,7.2|
];
constraint_x7_x3=[
0,0,7.1|
0,1,5.2|
0,2,0.8|
0,3,0.89|
0,4,9.8|
0,5,0.52|
0,6,1.6|
0,7,7.3|
1,0,6|
1,1,2.7|
1,2,4.7|
1,3,5.1|
1,4,2|
1,5,9.6|
1,6,3.4|
1,7,1.3|
2,0,7.6|
2,1,9.5|
2,2,7.2|
2,3,9.7|
2,4,1.6|
2,5,2.1|
2,6,3.6|
2,7,8.1|
3,0,5.5|
3,1,1.8|
3,2,0.35|
3,3,5.4|
3,4,4.6|
3,5,2.3|
3,6,8.2|
3,7,8.8|
4,0,7.5|
4,1,9.7|
4,2,2.9|
4,3,6.1|
4,4,9.2|
4,5,0.39|
4,6,5.6|
4,7,0.82|
5,0,7.6|
5,1,5.6|
5,2,5.3|
5,3,0.71|
5,4,0.51|
5,5,9.6|
5,6,7.6|
5,7,3|
6,0,6.8|
6,1,0.95|
6,2,7.3|
6,3,6.8|
6,4,6.5|
6,5,2|
6,6,3.1|
6,7,1.1|
7,0,3.5|
7,1,0.41|
7,2,3.9|
7,3,5.9|
7,4,2.3|
7,5,7.9|
7,6,4.4|
7,7,3|
];
constraint_x7_x6=[
0,0,5.3|
0,1,3.1|
0,2,0.47|
0,3,7.2|
0,4,5.3|
0,5,6.5|
0,6,8.3|
0,7,7.9|
1,0,6.8|
1,1,3.8|
1,2,7.3|
1,3,0.51|
1,4,7.4|
1,5,1.4|
1,6,3.1|
1,7,3.2|
2,0,9.1|
2,1,0.74|
2,2,8.2|
2,3,6.5|
2,4,5.6|
2,5,5.7|
2,6,1.1|
2,7,8.4|
3,0,3|
3,1,3.5|
3,2,9.4|
3,3,2.5|
3,4,6.5|
3,5,6.5|
3,6,0.19|
3,7,7.8|
4,0,3|
4,1,5.8|
4,2,6.5|
4,3,2.2|
4,4,7.7|
4,5,2.6|
4,6,3|
4,7,1.4|
5,0,9.9|
5,1,1.3|
5,2,1.5|
5,3,3.5|
5,4,10|
5,5,6.1|
5,6,6.6|
5,7,8.3|
6,0,4.9|
6,1,3.3|
6,2,8.5|
6,3,0.22|
6,4,9.1|
6,5,3.2|
6,6,4|
6,7,1.6|
7,0,8.6|
7,1,3|
7,2,5.7|
7,3,1.1|
7,4,4.5|
7,5,1|
7,6,5.3|
7,7,5.3|
];
constraint_x8_x4=[
0,0,9.3|
0,1,2.7|
0,2,4.1|
0,3,2.1|
0,4,7.7|
0,5,9.1|
0,6,3.9|
0,7,6|
1,0,9.8|
1,1,1.4|
1,2,7.3|
1,3,4.2|
1,4,5.4|
1,5,8.9|
1,6,2.1|
1,7,1.6|
2,0,2|
2,1,6.5|
2,2,7.5|
2,3,9.7|
2,4,1.4|
2,5,1.2|
2,6,0.99|
2,7,9.4|
3,0,6.1|
3,1,0.85|
3,2,1.9|
3,3,5.2|
3,4,7.6|
3,5,7.8|
3,6,1.3|
3,7,5.5|
4,0,7.1|
4,1,6.3|
4,2,0.061|
4,3,5.5|
4,4,5.9|
4,5,0.45|
4,6,5.1|
4,7,9.4|
5,0,4.7|
5,1,1.8|
5,2,3.3|
5,3,7.2|
5,4,7.1|
5,5,8.4|
5,6,0.038|
5,7,4.5|
6,0,2.2|
6,1,9|
6,2,9.2|
6,3,0.58|
6,4,1.2|
6,5,7.7|
6,6,6.1|
6,7,4.3|
7,0,9.9|
7,1,4.2|
7,2,3.6|
7,3,2.2|
7,4,1.3|
7,5,8.8|
7,6,4.8|
7,7,5.8|
];
constraint_x8_x7=[
0,0,6.6|
0,1,5.3|
0,2,2.9|
0,3,2.6|
0,4,0.047|
0,5,5|
0,6,7.5|
0,7,7.8|
1,0,8.7|
1,1,2.1|
1,2,7.3|
1,3,7.4|
1,4,7.9|
1,5,1.1|
1,6,9.1|
1,7,7.7|
2,0,3.2|
2,1,0.9|
2,2,6.8|
2,3,6.9|
2,4,9.1|
2,5,8.2|
2,6,2.9|
2,7,7.6|
3,0,9.5|
3,1,0.93|
3,2,0.69|
3,3,9.9|
3,4,1|
3,5,5.4|
3,6,9.6|
3,7,4.7|
4,0,4.1|
4,1,5.7|
4,2,3.3|
4,3,3.1|
4,4,8.1|
4,5,9.8|
4,6,8.8|
4,7,4.7|
5,0,6.1|
5,1,1.7|
5,2,3.2|
5,3,8.3|
5,4,6.5|
5,5,7.1|
5,6,9.8|
5,7,4.7|
6,0,9.2|
6,1,7.5|
6,2,2.4|
6,3,5.2|
6,4,7.3|
6,5,2.8|
6,6,9|
6,7,4.9|
7,0,2.2|
7,1,9.7|
7,2,3.4|
7,3,3|
7,4,1.6|
7,5,6|
7,6,0.34|
7,7,7.2|
];
constraint_x9_x5=[
0,0,9.3|
0,1,8.6|
0,2,9.3|
0,3,0.068|
0,4,1.3|
0,5,8.5|
0,6,8.9|
0,7,2.1|
1,0,8.2|
1,1,2.2|
1,2,1.8|
1,3,4|
1,4,7.4|
1,5,5.9|
1,6,4.6|
1,7,2.1|
2,0,9.6|
2,1,5|
2,2,7.5|
2,3,1.2|
2,4,6.2|
2,5,3.5|
2,6,5.5|
2,7,4.2|
3,0,6.9|
3,1,3.7|
3,2,1.8|
3,3,2.6|
3,4,4|
3,5,1.1|
3,6,5.1|
3,7,1.8|
4,0,8.9|
4,1,7.4|
4,2,9.6|
4,3,3.5|
4,4,1.8|
4,5,4.3|
4,6,9.6|
4,7,5.7|
5,0,1.9|
5,1,2.3|
5,2,1.2|
5,3,7.5|
5,4,4.2|
5,5,2.5|
5,6,6.6|
5,7,6.3|
6,0,8.7|
6,1,8.1|
6,2,3.9|
6,3,5|
6,4,2.6|
6,5,3.7|
6,6,9.3|
6,7,5.8|
7,0,8.9|
7,1,2.4|
7,2,2.8|
7,3,5.6|
7,4,7.9|
7,5,2.3|
7,6,6.3|
7,7,3.4|
];
constraint_x10_x6=[
0,0,7.5|
0,1,3.3|
0,2,6|
0,3,4|
0,4,2.2|
0,5,4.2|
0,6,7.2|
0,7,5.7|
1,0,1.3|
1,1,5.4|
1,2,1.9|
1,3,6.5|
1,4,4|
1,5,8.5|
1,6,7.5|
1,7,9|
2,0,3.5|
2,1,9.8|
2,2,4|
2,3,6.3|
2,4,5.3|
2,5,9.5|
2,6,6.8|
2,7,0.24|
3,0,7.8|
3,1,8.9|
3,2,2.5|
3,3,0.7|
3,4,2.5|
3,5,2.6|
3,6,0.13|
3,7,9.9|
4,0,1.3|
4,1,5.9|
4,2,6.2|
4,3,7.8|
4,4,8.7|
4,5,9.9|
4,6,1.5|
4,7,6.9|
5,0,1.8|
5,1,9.7|
5,2,9.8|
5,3,3|
5,4,7.9|
5,5,3.2|
5,6,1|
5,7,8.3|
6,0,6.4|
6,1,4.7|
6,2,9.9|
6,3,5.4|
6,4,6.7|
6,5,2.8|
6,6,6.9|
6,7,1.8|
7,0,2.6|
7,1,0.47|
7,2,0.11|
7,3,7.9|
7,4,1.1|
7,5,9.3|
7,6,4.1|
7,7,2|
];
constraint_x10_x9=[
0,0,6.5|
0,1,5.5|
0,2,7.1|
0,3,4.4|
0,4,8.1|
0,5,6.7|
0,6,4.1|
0,7,8.4|
1,0,2|
1,1,0.13|
1,2,7|
1,3,9|
1,4,5|
1,5,9.9|
1,6,3.6|
1,7,1.4|
2,0,3.5|
2,1,7.5|
2,2,8.7|
2,3,7.6|
2,4,8.7|
2,5,3.2|
2,6,0.77|
2,7,6|
3,0,2.8|
3,1,0.34|
3,2,0.49|
3,3,4.7|
3,4,9.5|
3,5,6.3|
3,6,9.7|
3,7,6.5|
4,0,8.7|
4,1,5.1|
4,2,6.3|
4,3,7.4|
4,4,7.6|
4,5,1.3|
4,6,5.2|
4,7,9|
5,0,8|
5,1,3.4|
5,2,8|
5,3,8.4|
5,4,8.9|
5,5,3.6|
5,6,0.41|
5,7,7.6|
6,0,6.4|
6,1,1.7|
6,2,7.8|
6,3,4.3|
6,4,1.8|
6,5,7.6|
6,6,0.71|
6,7,8.1|
7,0,8.1|
7,1,8.1|
7,2,0.28|
7,3,1.4|
7,4,6.2|
7,5,0.12|
7,6,3.1|
7,7,3.2|
];
constraint_x11_x7=[
0,0,1.6|
0,1,0.51|
0,2,7.2|
0,3,9.7|
0,4,4.9|
0,5,4.9|
0,6,4.7|
0,7,0.26|
1,0,5.6|
1,1,3.9|
1,2,7.5|
1,3,4.4|
1,4,9.6|
1,5,2.7|
1,6,8.6|
1,7,2.5|
2,0,0.83|
2,1,3.9|
2,2,1.6|
2,3,2.4|
2,4,5.9|
2,5,3.6|
2,6,7|
2,7,8.2|
3,0,0.3|
3,1,2.6|
3,2,2.8|
3,3,2|
3,4,9.1|
3,5,4.3|
3,6,2|
3,7,0.66|
4,0,3.9|
4,1,6.8|
4,2,3|
4,3,7|
4,4,10|
4,5,3.5|
4,6,5.1|
4,7,0.68|
5,0,2.1|
5,1,6.3|
5,2,2.6|
5,3,9.3|
5,4,6.8|
5,5,6.5|
5,6,2.7|
5,7,9.6|
6,0,9.3|
6,1,4.5|
6,2,4.4|
6,3,8.2|
6,4,6.3|
6,5,9.8|
6,6,4.9|
6,7,3.4|
7,0,5.5|
7,1,0.54|
7,2,4|
7,3,9.4|
7,4,0.93|
7,5,2.9|
7,6,4.9|
7,7,4.6|
];
constraint_x11_x10=[
0,0,3.8|
0,1,5|
0,2,7.6|
0,3,6.4|
0,4,2.7|
0,5,7.3|
0,6,7.2|
0,7,6.2|
1,0,0.83|
1,1,0.47|
1,2,4.8|
1,3,5.3|
1,4,6.9|
1,5,0.29|
1,6,8.7|
1,7,9.8|
2,0,6.7|
2,1,1.6|
2,2,9.3|
2,3,9.6|
2,4,4.9|
2,5,1.1|
2,6,9.1|
2,7,2|
3,0,5.3|
3,1,2.8|
3,2,9.4|
3,3,1.9|
3,4,4|
3,5,6.9|
3,6,6.8|
3,7,9.6|
4,0,6.7|
4,1,2.9|
4,2,8.4|
4,3,1.9|
4,4,4.6|
4,5,6.9|
4,6,7.6|
4,7,9|
5,0,2.3|
5,1,8.7|
5,2,0.23|
5,3,4.7|
5,4,4.3|
5,5,1.6|
5,6,5.7|
5,7,5.5|
6,0,4.1|
6,1,3.9|
6,2,9.3|
6,3,5.3|
6,4,8.3|
6,5,2.1|
6,6,0.65|
6,7,0.2|
7,0,4.2|
7,1,2.1|
7,2,4.1|
7,3,2.8|
7,4,6|
7,5,8.7|
7,6,7.6|
7,7,7.4|
];
constraint_x12_x8=[
0,0,7.7|
0,1,6.7|
0,2,0.69|
0,3,8.5|
0,4,7.3|
0,5,5.2|
0,6,0.91|
0,7,0.74|
1,0,5.1|
1,1,9.9|
1,2,4.7|
1,3,2.8|
1,4,3.5|
1,5,6.8|
1,6,0.85|
1,7,7.9|
2,0,7.1|
2,1,3.2|
2,2,1.6|
2,3,7.5|
2,4,9.9|
2,5,0.064|
2,6,3.5|
2,7,0.58|
3,0,4.2|
3,1,8.5|
3,2,6.6|
3,3,2.7|
3,4,4.2|
3,5,6.6|
3,6,8.4|
3,7,6.8|
4,0,4|
4,1,8.4|
4,2,5.8|
4,3,4.5|
4,4,1.1|
4,5,3.5|
4,6,0.31|
4,7,7.7|
5,0,7.9|
5,1,6.6|
5,2,1.6|
5,3,1.8|
5,4,0.11|
5,5,6.8|
5,6,4.3|
5,7,1.5|
6,0,2.3|
6,1,0.13|
6,2,4.7|
6,3,2.5|
6,4,0.075|
6,5,1.7|
6,6,1.4|
6,7,7.3|
7,0,8.2|
7,1,3.4|
7,2,4.5|
7,3,4.9|
7,4,9.5|
7,5,2.3|
7,6,9.6|
7,7,3.6|
];
constraint_x12_x11=[
0,0,9.9|
0,1,0.83|
0,2,3.8|
0,3,0.53|
0,4,4.9|
0,5,2.5|
0,6,0.73|
0,7,0.14|
1,0,9|
1,1,2.5|
1,2,7.1|
1,3,4|
1,4,7.5|
1,5,3.8|
1,6,8.3|
1,7,1.8|
2,0,1.7|
2,1,0.0038|
2,2,1.5|
2,3,0.19|
2,4,2.5|
2,5,7.7|
2,6,8.6|
2,7,2.9|
3,0,0.32|
3,1,0.83|
3,2,3.2|
3,3,8.2|
3,4,5.5|
3,5,9|
3,6,8.9|
3,7,5.1|
4,0,7.2|
4,1,8.9|
4,2,4.9|
4,3,6.2|
4,4,8.8|
4,5,9.6|
4,6,5.7|
4,7,8.1|
5,0,9.4|
5,1,5.5|
5,2,1.2|
5,3,1.5|
5,4,7.1|
5,5,2.4|
5,6,0.19|
5,7,4.7|
6,0,1.2|
6,1,4.6|
6,2,5.8|
6,3,2.4|
6,4,4.9|
6,5,2.9|
6,6,1.4|
6,7,0.71|
7,0,6.1|
7,1,3.4|
7,2,3.4|
7,3,3.8|
7,4,3.7|
7,5,8.8|
7,6,6.3|
7,7,9.3|
];
constraint_x13_x9=[
0,0,8.2|
0,1,2.3|
0,2,6.9|
0,3,1.7|
0,4,1|
0,5,9.5|
0,6,8.8|
0,7,1|
1,0,5.7|
1,1,2.1|
1,2,3|
1,3,9.6|
1,4,7.1|
1,5,7.3|
1,6,4.1|
1,7,6.8|
2,0,10|
2,1,7.4|
2,2,9.4|
2,3,7.8|
2,4,7.9|
2,5,4.8|
2,6,2.3|
2,7,5.4|
3,0,6.2|
3,1,5.2|
3,2,0.2|
3,3,9|
3,4,3.7|
3,5,7.4|
3,6,2.9|
3,7,0.25|
4,0,1.3|
4,1,0.99|
4,2,5.2|
4,3,6.6|
4,4,5.7|
4,5,1.2|
4,6,0.64|
4,7,9.8|
5,0,0.83|
5,1,3.8|
5,2,5.4|
5,3,7.2|
5,4,5.3|
5,5,2|
5,6,5.4|
5,7,5.5|
6,0,6.5|
6,1,1.6|
6,2,4.3|
6,3,4.7|
6,4,2.2|
6,5,9.7|
6,6,6|
6,7,3.7|
7,0,3.3|
7,1,4.8|
7,2,6.3|
7,3,7.5|
7,4,6.1|
7,5,8.7|
7,6,3|
7,7,2.3|
];
constraint_x14_x10=[
0,0,3.5|
0,1,3|
0,2,8.6|
0,3,1.3|
0,4,6.9|
0,5,7.8|
0,6,3.2|
0,7,2.3|
1,0,6|
1,1,4.8|
1,2,5.4|
1,3,6.8|
1,4,1.4|
1,5,0.27|
1,6,4.2|
1,7,7.3|
2,0,1.6|
2,1,9.8|
2,2,3.7|
2,3,3.5|
2,4,6.1|
2,5,5.4|
2,6,1.9|
2,7,9.1|
3,0,2.3|
3,1,1.3|
3,2,3.2|
3,3,0.3|
3,4,7.5|
3,5,4|
3,6,1.4|
3,7,6.1|
4,0,3.9|
4,1,2.8|
4,2,5|
4,3,2|
4,4,2.2|
4,5,8.2|
4,6,9.5|
4,7,0.0046|
5,0,2.3|
5,1,0.63|
5,2,3.7|
5,3,3.6|
5,4,3.1|
5,5,4.9|
5,6,1.1|
5,7,0.79|
6,0,6.5|
6,1,2.4|
6,2,2.8|
6,3,8.3|
6,4,7.1|
6,5,4.9|
6,6,1.8|
6,7,4.8|
7,0,8.7|
7,1,1|
7,2,1.2|
7,3,7.6|
7,4,9.2|
7,5,4.2|
7,6,8.7|
7,7,2.5|
];
constraint_x1_y1=[
0,0,2.6|
0,1,4.8|
0,2,2.8|
0,3,3.9|
0,4,3.2|
0,5,3.8|
0,6,4.3|
0,7,2.5|
1,0,2.2|
1,1,7.8|
1,2,1.6|
1,3,4.6|
1,4,9.4|
1,5,0.61|
1,6,5.1|
1,7,1.3|
2,0,4.6|
2,1,7.2|
2,2,7.1|
2,3,5.5|
2,4,6.4|
2,5,5.7|
2,6,4.4|
2,7,8.6|
3,0,9.7|
3,1,5.3|
3,2,6.9|
3,3,4.2|
3,4,1.6|
3,5,7.1|
3,6,6.8|
3,7,7.4|
4,0,9.3|
4,1,7.8|
4,2,3.1|
4,3,1.3|
4,4,9.5|
4,5,9.4|
4,6,5.3|
4,7,8.2|
5,0,3.7|
5,1,8.2|
5,2,9.5|
5,3,9.7|
5,4,7.9|
5,5,1.5|
5,6,2.6|
5,7,8.9|
6,0,9.5|
6,1,2.8|
6,2,5.5|
6,3,4.7|
6,4,9.3|
6,5,7.4|
6,6,2.3|
6,7,9|
7,0,7.8|
7,1,4.7|
7,2,5.9|
7,3,0.44|
7,4,0.77|
7,5,2|
7,6,9.5|
7,7,2.9|
];
constraint_x2_y2=[
0,0,1.2|
0,1,7.1|
0,2,6.6|
0,3,4.5|
0,4,8.8|
0,5,9.8|
0,6,10|
0,7,8.8|
1,0,8.1|
1,1,9.5|
1,2,5.6|
1,3,0.55|
1,4,9.2|
1,5,6.8|
1,6,2.7|
1,7,3.1|
2,0,0.011|
2,1,4.7|
2,2,8.7|
2,3,1.3|
2,4,8.3|
2,5,0.97|
2,6,4.9|
2,7,2.2|
3,0,5.7|
3,1,7.5|
3,2,7.3|
3,3,0.74|
3,4,3.8|
3,5,3|
3,6,1.9|
3,7,0.24|
4,0,7.7|
4,1,9.2|
4,2,4.1|
4,3,5.8|
4,4,8.9|
4,5,3.8|
4,6,8.1|
4,7,3.4|
5,0,0.44|
5,1,8.6|
5,2,0.85|
5,3,8.4|
5,4,0.031|
5,5,3.6|
5,6,5.1|
5,7,9.5|
6,0,3.9|
6,1,5.6|
6,2,0.73|
6,3,9.8|
6,4,6.4|
6,5,0.49|
6,6,0.87|
6,7,6|
7,0,1.6|
7,1,6.8|
7,2,0.32|
7,3,4.5|
7,4,2.9|
7,5,8.7|
7,6,0.51|
7,7,5.5|
];
constraint_x3_y3=[
0,0,7.1|
0,1,2.9|
0,2,2.3|
0,3,3.2|
0,4,1.3|
0,5,9|
0,6,4|
0,7,4.5|
1,0,4.4|
1,1,3.9|
1,2,5.3|
1,3,2.2|
1,4,2.5|
1,5,3.7|
1,6,8.6|
1,7,6.1|
2,0,2.7|
2,1,8.6|
2,2,1.6|
2,3,7|
2,4,0.28|
2,5,0.07|
2,6,7.4|
2,7,2.3|
3,0,3.5|
3,1,9.5|
3,2,6.7|
3,3,2.7|
3,4,7.2|
3,5,1.9|
3,6,8.5|
3,7,4|
4,0,4.2|
4,1,4.6|
4,2,5.4|
4,3,0.66|
4,4,5.1|
4,5,8.8|
4,6,2.2|
4,7,6|
5,0,8|
5,1,6.9|
5,2,9.3|
5,3,2.5|
5,4,3.5|
5,5,2|
5,6,3.8|
5,7,3.4|
6,0,7.1|
6,1,2.4|
6,2,7.4|
6,3,4.7|
6,4,9.1|
6,5,0.4|
6,6,1.1|
6,7,4.2|
7,0,9.7|
7,1,5.3|
7,2,9.9|
7,3,9.1|
7,4,5.6|
7,5,7.5|
7,6,3.5|
7,7,9.9|
];
constraint_x4_y4=[
0,0,7.8|
0,1,4.8|
0,2,8.8|
0,3,5.9|
0,4,1.5|
0,5,5.3|
0,6,6.9|
0,7,5.7|
1,0,8.2|
1,1,4|
1,2,3.5|
1,3,0.31|
1,4,3.2|
1,5,0.018|
1,6,5.4|
1,7,2.3|
2,0,4.7|
2,1,7.8|
2,2,4.7|
2,3,8.4|
2,4,0.55|
2,5,4.6|
2,6,3.8|
2,7,9.4|
3,0,9|
3,1,8.3|
3,2,7|
3,3,4.6|
3,4,0.12|
3,5,9.8|
3,6,9|
3,7,7|
4,0,5.7|
4,1,1.8|
4,2,1.2|
4,3,5.1|
4,4,8.5|
4,5,8.1|
4,6,3|
4,7,8.2|
5,0,2|
5,1,4.2|
5,2,7.6|
5,3,9|
5,4,6.1|
5,5,3.3|
5,6,10|
5,7,3.3|
6,0,5.1|
6,1,9|
6,2,4.3|
6,3,6.3|
6,4,1.9|
6,5,0.25|
6,6,8.5|
6,7,2.7|
7,0,8.6|
7,1,4.1|
7,2,8.4|
7,3,2.3|
7,4,3.1|
7,5,9.9|
7,6,8.6|
7,7,10|
];
constraint_x5_y5=[
0,0,2.4|
0,1,7.9|
0,2,4.1|
0,3,0.25|
0,4,0.64|
0,5,6.2|
0,6,9.2|
0,7,4.4|
1,0,4.6|
1,1,9.8|
1,2,4.2|
1,3,5.2|
1,4,4.6|
1,5,2.3|
1,6,2.5|
1,7,5.9|
2,0,1.9|
2,1,1.3|
2,2,8.4|
2,3,9.5|
2,4,3.4|
2,5,5.2|
2,6,9.2|
2,7,3.6|
3,0,0.6|
3,1,2.3|
3,2,9.7|
3,3,4.8|
3,4,4.3|
3,5,5.6|
3,6,4.4|
3,7,7|
4,0,9|
4,1,0.84|
4,2,6.3|
4,3,6.1|
4,4,0.45|
4,5,4.3|
4,6,7.6|
4,7,0.23|
5,0,9.5|
5,1,8.6|
5,2,5.7|
5,3,8.7|
5,4,5.4|
5,5,6.6|
5,6,0.54|
5,7,0.2|
6,0,7|
6,1,6.9|
6,2,2.7|
6,3,5.2|
6,4,5.3|
6,5,7.9|
6,6,4.6|
6,7,5.5|
7,0,7.5|
7,1,0.21|
7,2,8.5|
7,3,7.3|
7,4,6.4|
7,5,7.8|
7,6,9.9|
7,7,9.9|
];
constraint_x6_y6=[
0,0,3.2|
0,1,7.2|
0,2,4|
0,3,4.3|
0,4,9.6|
0,5,2.6|
0,6,5.2|
0,7,1.3|
1,0,7.1|
1,1,7.2|
1,2,5.1|
1,3,9.3|
1,4,9.2|
1,5,0.067|
1,6,6.7|
1,7,9.1|
2,0,1.3|
2,1,7.1|
2,2,9.3|
2,3,7|
2,4,7|
2,5,2.4|
2,6,2.5|
2,7,2.3|
3,0,9.6|
3,1,9.2|
3,2,0.17|
3,3,5.5|
3,4,6.7|
3,5,4.1|
3,6,5.3|
3,7,7.6|
4,0,9.7|
4,1,8.7|
4,2,5|
4,3,0.35|
4,4,7.7|
4,5,1.4|
4,6,5.1|
4,7,2.1|
5,0,9.4|
5,1,2.6|
5,2,9.1|
5,3,4.4|
5,4,8.9|
5,5,3.3|
5,6,6.2|
5,7,4.6|
6,0,4.6|
6,1,0.96|
6,2,1.9|
6,3,0.37|
6,4,4.7|
6,5,0.93|
6,6,3|
6,7,2.1|
7,0,0.67|
7,1,3.6|
7,2,6.5|
7,3,5|
7,4,4|
7,5,4|
7,6,4.5|
7,7,1.2|
];
initial_distribution_y1=[0.21,0.16,0.13,0.14,0.026,0.097,0.14,0.094];
initial_distribution_y2=[0.053,0.17,0.13,0.035,0.12,0.18,0.21,0.11];
initial_distribution_y3=[0.12,0.16,0.0036,0.18,0.092,0.15,0.11,0.17];
initial_distribution_y4=[0.2,0.21,0.15,0.0086,0.062,0.18,0.051,0.14];
initial_distribution_y5=[0.084,0.063,0.2,0.05,0.21,0.11,0.034,0.25];
initial_distribution_y6=[0.15,0.13,0.21,0.046,0.11,0.16,0.032,0.17];
transition_y1=[
0.16,0.22,0.14,0.11,0.2,0.11,0.044,0.011|
0.15,0.087,0.039,0.061,0.21,0.056,0.1,0.29|
0.17,0.18,0.18,0.14,0.067,0.11,0.075,0.062|
0.26,0.16,0.14,0.059,0.24,0.063,0.0084,0.079|
0.14,0.11,0.025,0.2,0.19,0.078,0.18,0.083|
0.095,0.17,0.12,0.096,0.18,0.16,0.046,0.14|
0.14,0.027,0.013,0.14,0.16,0.14,0.2,0.18|
0.1,0.13,0.15,0.099,0.054,0.21,0.17,0.1|
];
transition_y2=[
0.0083,0.15,0.22,0.074,0.078,0.2,0.22,0.048|
0.19,0.15,0.18,0.12,0.054,0.04,0.13,0.14|
0.19,0.025,0.12,0.13,0.17,0.073,0.16,0.12|
0.03,0.064,0.17,0.2,0.098,0.12,0.12,0.2|
0.092,0.19,0.23,0.094,0.099,0.0077,0.19,0.099|
0.077,0.13,0.16,0.18,0.039,0.17,0.053,0.19|
0.033,0.13,0.22,0.087,0.12,0.21,0.004,0.21|
0.17,0.059,0.042,0.2,0.16,0.15,0.094,0.13|
];
transition_y3=[
0.051,0.11,0.087,0.19,0.12,0.11,0.22,0.13|
0.15,0.025,0.19,0.21,0.043,0.14,0.24,0.011|
0.21,0.2,0.17,0.054,0.046,0.077,0.12,0.12|
0.1,0.048,0.048,0.17,0.23,0.16,0.03,0.2|
0.086,0.096,0.12,0.16,0.12,0.11,0.19,0.13|
0.18,0.17,0.044,0.14,0.052,0.18,0.066,0.18|
0.27,0.025,0.0049,0.33,0.0037,0.14,0.18,0.053|
0.17,0.044,0.21,0.17,0.074,0.22,0.1,0.0026|
];
transition_y4=[
0.18,0.11,0.094,0.2,0.2,0.021,0.0032,0.19|
0.095,0.17,0.2,0.12,0.11,0.26,0.023,0.024|
0.038,0.2,0.14,0.21,0.05,0.087,0.024,0.25|
0.12,0.06,0.051,0.23,0.28,0.014,0.036,0.21|
0.17,0.088,0.13,0.12,0.16,0.13,0.032,0.17|
0.1,0.19,0.098,0.14,0.079,0.12,0.18,0.088|
0.08,0.17,0.14,0.099,0.068,0.11,0.19,0.15|
0.17,0.074,0.15,0.18,0.18,0.12,0.031,0.1|
];
transition_y5=[
0.1,0.22,0.087,0.024,0.083,0.12,0.24,0.12|
0.064,0.18,0.18,0.045,0.17,0.17,0.16,0.031|
0.01,0.15,0.25,0.062,0.073,0.25,0.051,0.15|
0.24,0.0045,0.31,0.074,0.15,0.022,0.078,0.12|
0.22,0.094,0.13,0.04,0.25,0.19,0.025,0.044|
0.14,0.054,0.24,0.097,0.054,0.22,0.16,0.034|
0.13,0.24,0.14,0.12,0.015,0.2,0.064,0.098|
0.12,0.0043,0.28,0.047,0.21,0.038,0.15,0.15|
];
transition_y6=[
0.1,0.065,0.25,0.11,0.17,0.12,0.16,0.023|
0.12,0.26,0.19,0.011,0.058,0.1,0.22,0.043|
0.035,0.19,0.28,0.022,0.064,0.094,0.29,0.035|
0.11,0.12,0.16,0.2,0.05,0.12,0.13,0.11|
0.21,0.23,0.068,0.016,0.02,0.079,0.16,0.22|
0.065,0.22,0.033,0.071,0.12,0.22,0.22,0.048|
0.28,0.13,0.084,0.23,0.06,0.018,0.11,0.091|
0.16,0.18,0.023,0.29,0.048,0.11,0.094,0.095|
];
